(set-info :smt-lib-version 2.6)
(set-logic UFLIA)
(set-info :source |
Generated by: Geoff Sutcliffe
Generated on: 2026-03-11
Generator: TPTPWorld
Application: Benchmarking automated theorem provers
Time limit: 120.0

These benchmarks are translations from the TPTP Library (Thousands of
Problems for Theorem Provers), see http://www.cs.miami.edu/~tptp/

The TPTP is maintained by Geoff Sutcliffe, and he contributed this
selection of benchmarks to SMT-LIB.  They were exported from the
v9.2.1 realease of TPTP.
|)
(set-info :category "industrial")
(set-info :status unknown)
; SZS status Success
(declare-sort $$unsorted 0)

(declare-sort tptp.collection 0)
(declare-fun tptp.empty () tptp.collection)
(declare-fun tptp.add (Int tptp.collection) tptp.collection)
(declare-fun tptp.remove (Int tptp.collection) tptp.collection)
(declare-fun tptp.in (Int tptp.collection) Bool)
(assert (forall ((U Int)) (not (tptp.in U tptp.empty))))
(assert (forall ((V Int) (W tptp.collection)) (tptp.in V (tptp.add V W))))
(assert (forall ((X Int) (Y tptp.collection)) (not (tptp.in X (tptp.remove X Y)))))
(assert (forall ((Z Int) (X1 tptp.collection) (X2 Int)) (= (or (tptp.in Z X1) (= Z X2)) (tptp.in Z (tptp.add X2 X1)))))
(assert (forall ((X3 Int) (X4 tptp.collection) (X5 Int)) (= (and (tptp.in X3 X4) (not (= X3 X5))) (tptp.in X3 (tptp.remove X5 X4)))))

(declare-fun tptp.count (tptp.collection) Int)
(assert (forall ((X6 tptp.collection)) (>= (tptp.count X6) 0)))
(assert (forall ((X7 tptp.collection)) (= (= X7 tptp.empty) (= (tptp.count X7) 0))))
(assert (forall ((X8 Int) (X9 tptp.collection)) (= (not (tptp.in X8 X9)) (= (tptp.count (tptp.add X8 X9)) (+ (tptp.count X9) 1)))))
(assert (forall ((X10 Int) (X11 tptp.collection)) (= (tptp.in X10 X11) (= (tptp.count (tptp.add X10 X11)) (tptp.count X11)))))
(assert (forall ((X12 Int) (X13 tptp.collection)) (= (tptp.in X12 X13) (= (tptp.count (tptp.remove X12 X13)) (- (tptp.count X13) 1)))))
(assert (forall ((X14 Int) (X15 tptp.collection)) (= (not (tptp.in X14 X15)) (= (tptp.count (tptp.remove X14 X15)) (tptp.count X15)))))
(assert (forall ((X16 Int) (X17 tptp.collection)) (=> (tptp.in X16 X17) (= X17 (tptp.add X16 (tptp.remove X16 X17))))))
(assert (not (exists ((U tptp.collection) (V Int)) (> (+ (tptp.count U) 1) (tptp.count (tptp.add V U))))))
(check-sat)
(exit)
